SAT
-81 90 -22 -98 68 61 71 100 54 -19 -42 -13 91 33 -82 -60 -35 -63 -37 27 -40 6 86 64 -5 -15 -29 75 80 -96 36 -78 -74 73 88 92 -30 -46 -49 -87 77 -8 55 41 -2 -47 -9 -72 -45 12 89 -56 32 -50 57 -93 97 -18 -39 -66 -94 26 7 58 -84 -52 -59 -99 -1 -65 -69 24 76 62 -17 -67 -43 25 -11 31 48 -14 23 4 3 20 51 -28 -16 -21 53 83 44 -10 -95 -79 34 -85 -70 38 0
